; benchmark generated from python API
(set-info :status unknown)
(declare-fun tau_0 () Real)
(declare-fun TauIndex0 () Real)
(declare-fun TauIndex3 () Real)
(declare-fun TauIndex1 () Real)
(declare-fun TauIndex5 () Real)
(declare-fun TauIndex4 () Real)
(declare-fun TauIndex2 () Real)
(declare-fun TauIndex6 () Real)
(declare-fun time1 () Real)
(declare-fun time0 () Real)
(declare-fun tau_1 () Real)
(declare-fun fx_1_0 () Real)
(declare-fun fx_1_t () Real)
(declare-fun fx_0_0 () Real)
(declare-fun fx_0_t () Real)
(declare-fun sx_1_0 () Real)
(declare-fun sx_1_t () Real)
(declare-fun sx_0_0 () Real)
(declare-fun sx_0_t () Real)
(declare-fun reachability_1 () Bool)
(declare-fun reachability_0 () Bool)
(declare-fun chi0 () Bool)
(declare-fun chi2 () Bool)
(declare-fun chi1 () Bool)
(declare-fun ms_1 () Bool)
(declare-fun mf_1 () Bool)
(declare-fun ms_0 () Bool)
(declare-fun mf_0 () Bool)
(assert
 (let (($x598 (and (or (not (<= TauIndex0 tau_0)) reachability_0) (or (not (>= 0.0 tau_0)) reachability_1))))
(let (($x586 (or (not (and (<= 0.0 TauIndex0) (not (<= tau_0 TauIndex0)))) reachability_0)))
(let (($x591 (= chi1 (not (and $x586 (or (not (>= TauIndex0 tau_0)) reachability_1))))))
(let (($x574 (or (not (and (>= 40.0 TauIndex0) (<= 0.0 TauIndex0))) chi1)))
(let (($x580 (and (or (<= TauIndex0 0.0) chi0) $x574 (or (<= 40.0 TauIndex0) chi2))))
(let (($x562 (or (= TauIndex6 0.0) (= TauIndex2 0.0) (= TauIndex4 0.0) (= TauIndex5 0.0) (= TauIndex1 0.0) (= TauIndex3 0.0))))
(let (($x564 (or (not (and (<= 0.0 tau_0) (<= 40.0 tau_0))) (= TauIndex6 (+ (- 40.0) tau_0)) (= TauIndex2 (+ (- 40.0) tau_0)) (= TauIndex4 (+ (- 40.0) tau_0)) (= TauIndex5 (+ (- 40.0) tau_0)) (= TauIndex1 (+ (- 40.0) tau_0)) (= TauIndex3 (+ (- 40.0) tau_0)))))
(let (($x560 (or (not (<= 0.0 tau_0)) (= TauIndex6 tau_0) (= TauIndex2 tau_0) (= TauIndex4 tau_0) (= TauIndex5 tau_0) (= TauIndex1 tau_0) (= TauIndex3 tau_0))))
(let (($x292 (= 0.0 TauIndex3)))
(let (($x153 (<= 0.0 tau_0)))
(let (($x554 (and $x153 (or $x292 (= TauIndex3 tau_0) (= TauIndex3 (+ (- 40.0) tau_0))))))
(let (($x283 (= 0.0 TauIndex1)))
(let (($x547 (and $x153 (or $x283 (= TauIndex1 tau_0) (= TauIndex1 (+ (- 40.0) tau_0))))))
(let (($x274 (= 0.0 TauIndex5)))
(let (($x540 (and $x153 (or $x274 (= TauIndex5 tau_0) (= TauIndex5 (+ (- 40.0) tau_0))))))
(let (($x265 (= 0.0 TauIndex4)))
(let (($x533 (and $x153 (or $x265 (= TauIndex4 tau_0) (= TauIndex4 (+ (- 40.0) tau_0))))))
(let (($x256 (= 0.0 TauIndex2)))
(let (($x526 (and $x153 (or $x256 (= TauIndex2 tau_0) (= TauIndex2 (+ (- 40.0) tau_0))))))
(let (($x242 (= 0.0 TauIndex6)))
(let (($x517 (and $x153 (or $x242 (= TauIndex6 tau_0) (= TauIndex6 (+ (- 40.0) tau_0))))))
(let (($x229 (<= 0.0 TauIndex6)))
(let (($x226 (<= 0.0 TauIndex5)))
(let (($x223 (<= 0.0 TauIndex4)))
(let (($x220 (<= 0.0 TauIndex3)))
(let (($x217 (<= 0.0 TauIndex2)))
(let (($x214 (<= 0.0 TauIndex1)))
(let (($x210 (<= 0.0 TauIndex0)))
(let (($x487 (and (<= fx_1_t 21.0) (<= fx_1_0 21.0))))
(let (($x483 (and (not (<= fx_1_t 21.0)) (not (<= fx_1_0 21.0)))))
(let (($x457 (and (<= fx_0_t 21.0) (<= fx_0_0 21.0))))
(let (($x453 (and (not (<= fx_0_t 21.0)) (not (<= fx_0_0 21.0)))))
(let (($x135 (= 1.0 sx_1_t)))
(let (($x46 (not mf_1)))
(let (($x440 (and $x46 ms_1 $x135 (= fx_1_t (- (/ 2.0 5.0))) (not (<= fx_1_t 0.0)) (not (<= 50.0 sx_1_t)) (not (<= fx_1_0 0.0)) (not (<= 50.0 sx_1_0)))))
(let (($x126 (= (/ 7.0 10.0) fx_1_t)))
(let (($x439 (and mf_1 ms_1 $x135 $x126 (not (<= 50.0 fx_1_t)) (not (<= 50.0 sx_1_t)) (not (<= 50.0 fx_1_0)) (not (<= 50.0 sx_1_0)))))
(let (($x36 (not ms_1)))
(let (($x434 (and mf_1 $x36 (= sx_1_t (- (/ 3.0 5.0))) $x126 (not (<= 50.0 fx_1_t)) (not (<= sx_1_t 0.0)) (not (<= 50.0 fx_1_0)) (not (<= sx_1_0 0.0)))))
(let (($x429 (and $x46 $x36 (= sx_1_t (- (/ 3.0 5.0))) (= fx_1_t (- (/ 2.0 5.0))) (not (<= fx_1_t 0.0)) (not (<= sx_1_t 0.0)) (not (<= fx_1_0 0.0)) (not (<= sx_1_0 0.0)))))
(let (($x8 (not mf_0)))
(let (($x417 (and $x8 ms_0 (= sx_0_t (+ sx_0_0 time0)) (= fx_0_t (+ fx_0_0 (* (- (/ 2.0 5.0)) time0))) (not (<= fx_0_t 0.0)) (not (<= 50.0 sx_0_t)) (not (<= fx_0_0 0.0)) (not (<= 50.0 sx_0_0)))))
(let (($x83 (= fx_0_t (+ fx_0_0 (* (/ 7.0 10.0) time0)))))
(let (($x416 (and mf_0 ms_0 (= sx_0_t (+ sx_0_0 time0)) $x83 (not (<= 50.0 fx_0_t)) (not (<= 50.0 sx_0_t)) (not (<= 50.0 fx_0_0)) (not (<= 50.0 sx_0_0)))))
(let (($x10 (not ms_0)))
(let (($x409 (and mf_0 $x10 (= sx_0_t (+ sx_0_0 (* (- (/ 3.0 5.0)) time0))) $x83 (not (<= 50.0 fx_0_t)) (not (<= sx_0_t 0.0)) (not (<= 50.0 fx_0_0)) (not (<= sx_0_0 0.0)))))
(let (($x404 (and $x8 $x10 (= sx_0_t (+ sx_0_0 (* (- (/ 3.0 5.0)) time0))) (= fx_0_t (+ fx_0_0 (* (- (/ 2.0 5.0)) time0))) (not (<= fx_0_t 0.0)) (not (<= sx_0_t 0.0)) (not (<= fx_0_0 0.0)) (not (<= sx_0_0 0.0)))))
(let (($x40 (= sx_1_0 sx_0_t)))
(let (($x38 (= fx_1_0 fx_0_t)))
(let (($x378 (<= (* (/ 1.0 2.0) sx_0_t) (* (/ 1.0 2.0) fx_0_t))))
(let (($x375 (<= (* (/ 1.0 2.0) fx_0_t) (* (/ 1.0 2.0) sx_0_t))))
(let (($x387 (or (and $x375 (not $x378) mf_1 $x36 $x38 $x40) (and (not $x375) $x378 $x46 ms_1 $x38 $x40) (and (not $x375) (not $x378) $x46 $x36 $x38 $x40) (and $x375 $x378 mf_1 ms_1 $x38 $x40))))
(and $x8 $x10 (>= fx_0_0 (/ 199.0 10.0)) (<= fx_0_0 (/ 201.0 10.0)) (>= sx_0_0 23.0) (<= sx_0_0 (/ 47.0 2.0)) $x387 (or $x404 $x409 $x416 $x417) (or $x429 $x434 $x439 $x440) $x153 (= time0 tau_0) (= time1 (+ tau_1 (* (- 1.0) tau_0))) (not (<= tau_1 tau_0)) (or (not (and reachability_0 $x8 $x10)) $x453) (or (not (and (not reachability_0) $x8 $x10)) $x457) (or (not (and reachability_0 mf_0 $x10)) $x453) (or (not (and (not reachability_0) mf_0 $x10)) $x457) (or (not (and reachability_0 mf_0 ms_0)) $x453) (or (not (and (not reachability_0) mf_0 ms_0)) $x457) (or (not (and reachability_0 $x8 ms_0)) $x453) (or (not (and (not reachability_0) $x8 ms_0)) $x457) (or (not (and reachability_1 $x46 $x36)) $x483) (or (not (and (not reachability_1) $x46 $x36)) $x487) (or (not (and reachability_1 mf_1 $x36)) $x483) (or (not (and (not reachability_1) mf_1 $x36)) $x487) (or (not (and reachability_1 mf_1 ms_1)) $x483) (or (not (and (not reachability_1) mf_1 ms_1)) $x487) (or (not (and reachability_1 $x46 ms_1)) $x483) (or (not (and (not reachability_1) $x46 ms_1)) $x487) $x210 (>= 60.0 TauIndex0) $x214 (>= 60.0 TauIndex1) $x217 (>= 60.0 TauIndex2) $x220 (>= 60.0 TauIndex3) $x223 (>= 60.0 TauIndex4) $x226 (>= 60.0 TauIndex5) $x229 (>= 60.0 TauIndex6) (>= 60.0 tau_0) (<= 0.0 tau_1) (>= 60.0 tau_1) (<= 0.0 time0) (>= 60.0 time0) (<= 0.0 time1) (>= 60.0 time1) (= TauIndex0 tau_0) (= tau_0 TauIndex0) (or $x517 $x242 (= TauIndex6 0.0) (= TauIndex6 (- 40.0))) (or $x526 $x256 (= TauIndex2 0.0) (= TauIndex2 (- 40.0))) (or $x533 $x265 (= TauIndex4 0.0) (= TauIndex4 (- 40.0))) (or $x540 $x274 (= TauIndex5 0.0) (= TauIndex5 (- 40.0))) (or $x547 $x283 (= TauIndex1 0.0) (= TauIndex1 (- 40.0))) (or $x554 $x292 (= TauIndex3 0.0) (= TauIndex3 (- 40.0))) $x560 $x564 $x562 (not $x580) $x591 (= chi2 (not (or (not (>= TauIndex0 tau_0)) reachability_1))) (= chi0 (not $x598))))))))))))))))))))))))))))))))))))))))))))))))))))))))
(check-sat)

